NAME: cuum440.tsp
TYPE: TSP
COMMENT: User-generated TSP file
DIMENSION: 440
EDGE_WEIGHT_TYPE: EUC_2D
NODE_COORD_SECTION
1 158.0 58.0
2 271.0 413.0
3 174.0 336.0
4 205.0 408.0
5 239.0 16.0
6 4.0 174.0
7 387.0 171.0
8 214.0 33.0
9 158.0 99.0
10 336.0 121.0
11 132.0 96.0
12 187.0 407.0
13 328.0 156.0
14 351.0 293.0
15 264.0 376.0
16 34.0 169.0
17 96.0 264.0
18 97.0 276.0
19 337.0 436.0
20 37.0 42.0
21 220.0 374.0
22 259.0 399.0
23 403.0 305.0
24 11.0 77.0
25 381.0 258.0
26 119.0 117.0
27 272.0 273.0
28 129.0 427.0
29 420.0 122.0
30 178.0 313.0
31 303.0 113.0
32 424.0 265.0
33 272.0 213.0
34 169.0 63.0
35 427.0 211.0
36 13.0 103.0
37 236.0 415.0
38 134.0 401.0
39 285.0 210.0
40 106.0 228.0
41 146.0 69.0
42 411.0 113.0
43 375.0 358.0
44 302.0 241.0
45 434.0 107.0
46 137.0 335.0
47 340.0 3.0
48 24.0 80.0
49 67.0 59.0
50 365.0 314.0
51 37.0 117.0
52 66.0 235.0
53 296.0 285.0
54 156.0 45.0
55 230.0 148.0
56 360.0 428.0
57 341.0 166.0
58 96.0 406.0
59 199.0 259.0
60 81.0 46.0
61 51.0 198.0
62 83.0 302.0
63 369.0 108.0
64 356.0 424.0
65 33.0 202.0
66 28.0 13.0
67 86.0 361.0
68 414.0 287.0
69 356.0 226.0
70 144.0 201.0
71 184.0 193.0
72 9.0 270.0
73 293.0 378.0
74 3.0 6.0
75 363.0 74.0
76 364.0 352.0
77 357.0 38.0
78 417.0 37.0
79 313.0 52.0
80 180.0 210.0
81 265.0 314.0
82 309.0 214.0
83 281.0 133.0
84 290.0 137.0
85 209.0 290.0
86 188.0 194.0
87 298.0 86.0
88 356.0 299.0
89 435.0 142.0
90 136.0 88.0
91 382.0 177.0
92 287.0 426.0
93 37.0 370.0
94 398.0 169.0
95 157.0 49.0
96 313.0 424.0
97 235.0 36.0
98 341.0 291.0
99 367.0 420.0
100 403.0 116.0
101 352.0 351.0
102 79.0 133.0
103 191.0 297.0
104 36.0 43.0
105 118.0 64.0
106 378.0 421.0
107 403.0 146.0
108 342.0 132.0
109 76.0 288.0
110 236.0 307.0
111 377.0 199.0
112 241.0 94.0
113 196.0 86.0
114 133.0 399.0
115 6.0 276.0
116 330.0 314.0
117 375.0 15.0
118 306.0 325.0
119 356.0 141.0
120 440.0 20.0
121 250.0 87.0
122 152.0 300.0
123 401.0 338.0
124 196.0 125.0
125 268.0 187.0
126 231.0 67.0
127 378.0 248.0
128 262.0 124.0
129 173.0 410.0
130 126.0 351.0
131 240.0 412.0
132 198.0 271.0
133 398.0 7.0
134 353.0 403.0
135 12.0 174.0
136 154.0 209.0
137 310.0 34.0
138 203.0 425.0
139 284.0 352.0
140 141.0 390.0
141 59.0 116.0
142 53.0 345.0
143 35.0 27.0
144 226.0 120.0
145 106.0 300.0
146 102.0 428.0
147 190.0 136.0
148 137.0 252.0
149 109.0 380.0
150 156.0 49.0
151 226.0 382.0
152 182.0 84.0
153 55.0 322.0
154 90.0 94.0
155 157.0 184.0
156 115.0 222.0
157 344.0 180.0
158 137.0 302.0
159 297.0 173.0
160 286.0 119.0
161 3.0 53.0
162 373.0 346.0
163 340.0 305.0
164 60.0 310.0
165 327.0 327.0
166 40.0 183.0
167 89.0 298.0
168 248.0 139.0
169 31.0 232.0
170 258.0 161.0
171 361.0 17.0
172 75.0 20.0
173 322.0 351.0
174 375.0 49.0
175 289.0 294.0
176 334.0 312.0
177 179.0 94.0
178 118.0 376.0
179 382.0 181.0
180 232.0 75.0
181 314.0 227.0
182 279.0 55.0
183 82.0 182.0
184 227.0 382.0
185 254.0 181.0
186 393.0 70.0
187 14.0 39.0
188 17.0 379.0
189 23.0 102.0
190 325.0 18.0
191 302.0 375.0
192 39.0 82.0
193 128.0 198.0
194 383.0 236.0
195 246.0 398.0
196 102.0 49.0
197 179.0 142.0
198 314.0 235.0
199 414.0 384.0
200 309.0 348.0
201 181.0 187.0
202 432.0 361.0
203 219.0 101.0
204 44.0 138.0
205 334.0 186.0
206 242.0 227.0
207 280.0 418.0
208 34.0 335.0
209 356.0 74.0
210 354.0 418.0
211 385.0 55.0
212 11.0 389.0
213 438.0 107.0
214 35.0 351.0
215 108.0 74.0
216 187.0 134.0
217 160.0 285.0
218 187.0 215.0
219 311.0 109.0
220 185.0 337.0
221 403.0 229.0
222 312.0 73.0
223 372.0 313.0
224 28.0 306.0
225 28.0 256.0
226 79.0 217.0
227 400.0 257.0
228 404.0 321.0
229 59.0 255.0
230 293.0 155.0
231 424.0 44.0
232 37.0 248.0
233 325.0 411.0
234 58.0 225.0
235 337.0 338.0
236 150.0 367.0
237 302.0 390.0
238 5.0 346.0
239 157.0 52.0
240 270.0 68.0
241 366.0 413.0
242 372.0 350.0
243 421.0 339.0
244 228.0 73.0
245 130.0 428.0
246 4.0 228.0
247 189.0 39.0
248 201.0 194.0
249 105.0 250.0
250 306.0 404.0
251 111.0 130.0
252 431.0 267.0
253 101.0 218.0
254 51.0 107.0
255 363.0 5.0
256 274.0 372.0
257 219.0 117.0
258 323.0 131.0
259 439.0 231.0
260 93.0 14.0
261 248.0 208.0
262 340.0 279.0
263 164.0 158.0
264 337.0 391.0
265 295.0 309.0
266 39.0 415.0
267 64.0 37.0
268 131.0 206.0
269 361.0 339.0
270 234.0 151.0
271 352.0 270.0
272 399.0 360.0
273 32.0 439.0
274 48.0 240.0
275 261.0 117.0
276 212.0 289.0
277 202.0 434.0
278 419.0 123.0
279 112.0 11.0
280 55.0 39.0
281 433.0 30.0
282 174.0 154.0
283 375.0 204.0
284 431.0 398.0
285 121.0 364.0
286 382.0 430.0
287 321.0 158.0
288 110.0 139.0
289 425.0 361.0
290 167.0 176.0
291 37.0 246.0
292 5.0 359.0
293 173.0 335.0
294 251.0 4.0
295 220.0 97.0
296 296.0 372.0
297 258.0 363.0
298 246.0 227.0
299 323.0 45.0
300 377.0 39.0
301 299.0 379.0
302 103.0 241.0
303 135.0 9.0
304 156.0 61.0
305 385.0 74.0
306 209.0 228.0
307 187.0 108.0
308 66.0 240.0
309 3.0 166.0
310 84.0 141.0
311 266.0 66.0
312 187.0 403.0
313 300.0 43.0
314 333.0 295.0
315 12.0 393.0
316 7.0 114.0
317 170.0 345.0
318 154.0 165.0
319 113.0 145.0
320 257.0 339.0
321 440.0 132.0
322 92.0 156.0
323 396.0 166.0
324 193.0 381.0
325 174.0 108.0
326 437.0 215.0
327 141.0 108.0
328 293.0 37.0
329 223.0 242.0
330 268.0 41.0
331 406.0 281.0
332 349.0 120.0
333 297.0 247.0
334 110.0 429.0
335 21.0 290.0
336 338.0 228.0
337 255.0 437.0
338 266.0 389.0
339 202.0 123.0
340 274.0 201.0
341 252.0 113.0
342 113.0 288.0
343 408.0 283.0
344 170.0 274.0
345 105.0 245.0
346 127.0 57.0
347 55.0 203.0
348 344.0 387.0
349 282.0 59.0
350 308.0 418.0
351 233.0 110.0
352 105.0 184.0
353 118.0 244.0
354 311.0 318.0
355 238.0 417.0
356 213.0 282.0
357 241.0 335.0
358 196.0 207.0
359 155.0 275.0
360 65.0 74.0
361 432.0 224.0
362 240.0 95.0
363 270.0 97.0
364 430.0 149.0
365 8.0 153.0
366 103.0 146.0
367 419.0 163.0
368 349.0 127.0
369 435.0 102.0
370 415.0 70.0
371 188.0 375.0
372 156.0 28.0
373 164.0 262.0
374 391.0 227.0
375 153.0 427.0
376 163.0 209.0
377 224.0 349.0
378 408.0 361.0
379 169.0 221.0
380 83.0 142.0
381 377.0 382.0
382 210.0 408.0
383 329.0 163.0
384 285.0 377.0
385 334.0 422.0
386 115.0 377.0
387 130.0 71.0
388 432.0 249.0
389 25.0 334.0
390 51.0 175.0
391 79.0 70.0
392 61.0 26.0
393 185.0 435.0
394 112.0 409.0
395 73.0 271.0
396 107.0 299.0
397 52.0 107.0
398 128.0 413.0
399 198.0 104.0
400 287.0 131.0
401 309.0 231.0
402 288.0 91.0
403 43.0 299.0
404 114.0 204.0
405 57.0 52.0
406 15.0 68.0
407 247.0 198.0
408 85.0 280.0
409 22.0 40.0
410 149.0 5.0
411 298.0 234.0
412 346.0 164.0
413 183.0 217.0
414 438.0 349.0
415 306.0 319.0
416 8.0 301.0
417 421.0 407.0
418 20.0 408.0
419 69.0 52.0
420 8.0 302.0
421 70.0 115.0
422 137.0 59.0
423 83.0 393.0
424 288.0 440.0
425 329.0 54.0
426 324.0 225.0
427 283.0 281.0
428 372.0 237.0
429 56.0 165.0
430 301.0 212.0
431 26.0 17.0
432 368.0 437.0
433 385.0 405.0
434 165.0 53.0
435 113.0 381.0
436 400.0 421.0
437 231.0 195.0
438 402.0 347.0
439 176.0 320.0
440 436.0 407.0
EOF





